NAME : kroD100.49165.tour
COMMENT : Cost = 6358_49165
COMMENT : Found by LKH [Keld Helsgaun] Thu Nov 16 20:48:28 2017
TYPE : TOUR
DIMENSION : 109
TOUR_SECTION
1
27
101
16
18
21
56
20
25
85
63
15
103
13
79
35
30
100
2
48
92
5
43
39
41
24
105
88
93
60
62
37
51
19
53
44
4
71
73
102
34
38
66
8
61
72
57
31
99
45
33
68
14
65
78
80
76
46
52
81
104
54
64
59
40
83
6
9
10
26
87
55
3
77
91
84
106
95
107
96
82
47
28
12
86
69
108
94
17
90
11
89
42
23
74
7
75
67
36
29
58
22
70
49
98
97
32
109
50
-1
EOF
